SCIP version 5.0.0 [precision: 8 byte] [memory: block] [mode: optimized] [LP solver: NONE] [GitHash: 3bbd232]
Copyright (C) 2002-2017 Konrad-Zuse-Zentrum fuer Informationstechnik Berlin (ZIB)

External codes: 
  Readline EditLine w  GNU library for command line editing (gnu.org/s/readline)
  CppAD 20160000.1     Algorithmic Differentiation of C++ algorithms developed by B. Bell (www.coin-or.org/CppAD)
  ZLIB 1.2.5           General purpose compression library by J. Gailly and M. Adler (zlib.net)
  GMP 6.1.2            GNU Multiple Precision Arithmetic Library developed by T. Granlund (gmplib.org)

user parameter file <scip.set> not found - using default parameters

read problem <../../Split_data/output/breast/1/0_sample_breast.logreg>
============

File name	:	../../Split_data/output/breast/1/0_sample_breast.logreg
Problem name 	:	0_sample_breast
Number of data	:	156
Number of var	:	33
The given data has linear independence

[dim=1] time: 0.006262
[dim=2] time: 0.010699
[dim=3] time: 0.015167
[dim=4] time: 0.018794
[dim=5] time: 0.022478
[dim=6] Time of forward = 0.026161sec.
AIC: 151.815
k: 5

[dim=33] time: 0.011711
[dim=32] time: 0.022867
[dim=31] time: 0.03331
[dim=30] time: 0.043923
[dim=29] time: 0.052265
[dim=28] time: 0.059195
[dim=27] time: 0.067659
[dim=26] time: 0.074959
[dim=25] time: 0.081463
[dim=24] time: 0.087097
[dim=23] time: 0.093198
[dim=22] time: 0.099488
[dim=21] Time of backward = 0.104362sec.
AIC: 134.158
k: 22
